(set-option :auto-config false)
(set-option :model true)
(set-option :model.partial false)
(set-option :smt.mbqi false)
(define-sort SMT_Elt () Int)
(define-sort SMT_Set () (Array SMT_Elt Bool))
(define-fun smt_set_emp () SMT_Set ((as const SMT_Set) false))
(define-fun smt_set_mem ((x SMT_Elt) (s SMT_Set)) Bool (select s x))
(define-fun smt_set_add ((s SMT_Set) (x SMT_Elt)) SMT_Set (store s x true))
(define-fun smt_set_cup ((s1 SMT_Set) (s2 SMT_Set)) SMT_Set ((_ map or) s1 s2))
(define-fun smt_set_cap ((s1 SMT_Set) (s2 SMT_Set)) SMT_Set ((_ map and) s1 s2))
(define-fun smt_set_com ((s SMT_Set)) SMT_Set ((_ map not) s))
(define-fun smt_set_dif ((s1 SMT_Set) (s2 SMT_Set)) SMT_Set (smt_set_cap s1 (smt_set_com s2)))
(define-fun smt_set_sub ((s1 SMT_Set) (s2 SMT_Set)) Bool (= smt_set_emp (smt_set_dif s1 s2)))
(declare-fun z3v60 () Int)
(declare-fun z3f61 (Int) Int)
(declare-fun z3v62 () Int)
(declare-fun z3v63 () Int)
(declare-fun z3v64 () Int)
(declare-fun z3v65 () Int)
(declare-fun z3f66 (Int) Int)
(declare-fun z3v67 () Int)
(declare-fun z3v68 () Int)
(push 1)
(assert true)
(assert (and (>= (z3f61 z3v60) 0) (>= (z3f61 z3v62) 0) (>= (z3f61 z3v63) 0) (>= (z3f61 z3v64) 0) (= z3v64 z3v62) (>= (z3f61 z3v64) 0) (= (z3f66 z3v65) z3v65) (= (z3f66 z3v67) z3v67) (= (z3f66 z3v68) z3v68)))
(declare-fun z3v69 () Int)
(push 1)
(assert (not (>  (z3f61 z3v69) 0)))
(check-sat)
(pop 1)
(push 1)
(assert (not (= (z3f61 z3v69) 0)))
(check-sat)
(pop 1)
(push 1)
(assert (not (>= (z3f61 z3v69) 0)))
(check-sat)
(pop 1)
(push 1)
(assert (not (>= (z3f61 z3v69) (z3f61 z3v60))))
(check-sat)
(pop 1)
(push 1)
(assert (not (>= (z3f61 z3v69) (z3f61 z3v62))))
(check-sat)
(pop 1)
(push 1)
(assert (not (<= (z3f61 z3v69) (z3f61 z3v60))))
(check-sat)
(pop 1)
(push 1)
(assert (not (<= (z3f61 z3v69) (z3f61 z3v62))))
(check-sat)
(pop 1)
(push 1)
(assert (not (>  (z3f61 z3v69) (z3f61 z3v60))))
(check-sat)
(pop 1)
(push 1)
(assert (not (>  (z3f61 z3v69) (z3f61 z3v62))))
(check-sat)
(pop 1)
(push 1)
(assert (not (<  (z3f61 z3v69) (z3f61 z3v60))))
(check-sat)
(pop 1)
(push 1)
(assert (not (<  (z3f61 z3v69) (z3f61 z3v62))))
(check-sat)
(pop 1)
(push 1)
(assert (not (= (z3f61 z3v69) (z3f61 z3v60))))
(check-sat)
(pop 1)
(push 1)
(assert (not (= (z3f61 z3v69) (z3f61 z3v62))))
(check-sat)
(pop 1)
(push 1)
(assert (not (not (= z3v69 z3v60))))
(check-sat)
(pop 1)
(push 1)
(assert (not (>  z3v69 z3v60)))
(check-sat)
(pop 1)
(push 1)
(assert (not (<= z3v69 z3v60)))
(check-sat)
(pop 1)
(push 1)
(assert (not (>= z3v69 z3v60)))
(check-sat)
(pop 1)
(push 1)
(assert (not (<  z3v69 z3v60)))
(check-sat)
(pop 1)
(push 1)
(assert (not (= z3v69 z3v60)))
(check-sat)
(pop 1)
(pop 1)
(declare-fun z3v70 () Int)
(push 1)
(assert true)
(assert (and (>= (z3f61 z3v60) 0) (>= (z3f61 z3v62) 0) (>= (z3f61 z3v70) 0) (= (z3f66 z3v65) z3v65) (= (z3f66 z3v67) z3v67) (= (z3f66 z3v68) z3v68)))
(declare-fun z3v71 () Int)
(push 1)
(assert (not (>  (z3f61 z3v71) 0)))
(check-sat)
(pop 1)
(push 1)
(assert (not (= (z3f61 z3v71) 0)))
(check-sat)
(pop 1)
(push 1)
(assert (not (>= (z3f61 z3v71) 0)))
(check-sat)
(pop 1)
(push 1)
(assert (not (>= (z3f61 z3v71) (z3f61 z3v60))))
(check-sat)
(pop 1)
(push 1)
(assert (not (<= (z3f61 z3v71) (z3f61 z3v60))))
(check-sat)
(pop 1)
(push 1)
(assert (not (>  (z3f61 z3v71) (z3f61 z3v60))))
(check-sat)
(pop 1)
(push 1)
(assert (not (<  (z3f61 z3v71) (z3f61 z3v60))))
(check-sat)
(pop 1)
(push 1)
(assert (not (= (z3f61 z3v71) (z3f61 z3v60))))
(check-sat)
(pop 1)
(push 1)
(assert (not (not (= z3v71 z3v60))))
(check-sat)
(pop 1)
(push 1)
(assert (not (>  z3v71 z3v60)))
(check-sat)
(pop 1)
(push 1)
(assert (not (<= z3v71 z3v60)))
(check-sat)
(pop 1)
(push 1)
(assert (not (>= z3v71 z3v60)))
(check-sat)
(pop 1)
(push 1)
(assert (not (<  z3v71 z3v60)))
(check-sat)
(pop 1)
(push 1)
(assert (not (= z3v71 z3v60)))
(check-sat)
(pop 1)
(pop 1)
(declare-fun z3v72 () Int)
(declare-fun z3v73 () Int)
(declare-fun z3v74 () Int)
(push 1)
(assert true)
(assert (= z3v74 z3v72))
(assert (>= (z3f61 z3v74) 0))
(assert (and (>= (z3f61 z3v72) 0) (>= (z3f61 z3v60) 0) (>= (z3f61 z3v73) 0) (= z3v73 z3v72) (>= (z3f61 z3v73) 0) (= (z3f66 z3v65) z3v65) (= (z3f66 z3v67) z3v67) (= (z3f66 z3v68) z3v68)))
(push 1)
(assert (not (>  (z3f61 z3v74) 0)))
(check-sat)
(pop 1)
(pop 1)
(push 1)
(assert true)
(assert (and (>= (z3f61 z3v60) 0) (>= (z3f61 z3v62) 0) (>= (z3f61 z3v70) 0) (= (z3f66 z3v65) z3v65) (= (z3f66 z3v67) z3v67) (= (z3f66 z3v68) z3v68)))
(pop 1)
(push 1)
(assert true)
(assert (and (>= (z3f61 z3v60) 0) (>= (z3f61 z3v62) 0) (>= (z3f61 z3v63) 0) (>= (z3f61 z3v64) 0) (= z3v64 z3v62) (>= (z3f61 z3v64) 0) (= (z3f66 z3v65) z3v65) (= (z3f66 z3v67) z3v67) (= (z3f66 z3v68) z3v68)))
(pop 1)
